p wcnf 78 1404
2 1 0
2 2 0
2 3 0
2 4 0
2 5 0
2 6 0
1 7 0
1 8 0
1 9 0
1 10 0
1 11 0
1 12 0
1 13 0
1 14 0
1 15 0
1 16 0
1 17 0
1 18 0
0 19 0
0 20 0
0 21 0
0 22 0
0 23 0
0 24 0
2 25 0
2 26 0
2 27 0
2 28 0
2 29 0
2 30 0
1 31 0
1 32 0
1 33 0
1 34 0
1 35 0
1 36 0
18 -37 1 0
18 -38 2 0
18 -39 3 0
18 -40 4 0
18 -41 5 0
18 -42 6 0
14 -37 7 0
14 -38 8 0
14 -39 9 0
14 -40 10 0
14 -41 11 0
14 -42 12 0
6 -37 13 0
6 -38 14 0
6 -39 15 0
6 -40 16 0
6 -41 17 0
6 -42 18 0
21 -37 19 0
21 -38 20 0
21 -39 21 0
21 -40 22 0
21 -41 23 0
21 -42 24 0
5 -37 25 0
5 -38 26 0
5 -39 27 0
5 -40 28 0
5 -41 29 0
5 -42 30 0
19 -37 31 0
19 -38 32 0
19 -39 33 0
19 -40 34 0
19 -41 35 0
19 -42 36 0
1 -1 -43 1 0
1 -2 -44 1 0
1 -3 -45 1 0
1 -4 -46 1 0
1 -5 -47 1 0
1 -6 -48 1 0
1 -1 -49 2 0
1 -2 -50 2 0
1 -3 -51 2 0
1 -4 -52 2 0
1 -5 -53 2 0
1 -6 -54 2 0
1 -1 -55 3 0
1 -2 -56 3 0
1 -3 -57 3 0
1 -4 -58 3 0
1 -5 -59 3 0
1 -6 -60 3 0
1 -1 -61 4 0
1 -2 -62 4 0
1 -3 -63 4 0
1 -4 -64 4 0
1 -5 -65 4 0
1 -6 -66 4 0
1 -1 -67 5 0
1 -2 -68 5 0
1 -3 -69 5 0
1 -4 -70 5 0
1 -5 -71 5 0
1 -6 -72 5 0
1 -1 -73 6 0
1 -2 -74 6 0
1 -3 -75 6 0
1 -4 -76 6 0
1 -5 -77 6 0
1 -6 -78 6 0
0 -1 -43 7 0
0 -1 -49 8 0
0 -1 -55 9 0
0 -1 -61 10 0
0 -1 -67 11 0
0 -1 -73 12 0
0 -2 -44 7 0
0 -2 -50 8 0
0 -2 -56 9 0
0 -2 -62 10 0
0 -2 -68 11 0
0 -2 -74 12 0
0 -3 -45 7 0
0 -3 -51 8 0
0 -3 -57 9 0
0 -3 -63 10 0
0 -3 -69 11 0
0 -3 -75 12 0
0 -4 -46 7 0
0 -4 -52 8 0
0 -4 -58 9 0
0 -4 -64 10 0
0 -4 -70 11 0
0 -4 -76 12 0
0 -5 -47 7 0
0 -5 -53 8 0
0 -5 -59 9 0
0 -5 -65 10 0
0 -5 -71 11 0
0 -5 -77 12 0
0 -6 -48 7 0
0 -6 -54 8 0
0 -6 -60 9 0
0 -6 -66 10 0
0 -6 -72 11 0
0 -6 -78 12 0
0 -1 -43 13 0
0 -2 -44 13 0
0 -3 -45 13 0
0 -4 -46 13 0
0 -5 -47 13 0
0 -6 -48 13 0
0 -1 -49 14 0
0 -2 -50 14 0
0 -3 -51 14 0
0 -4 -52 14 0
0 -5 -53 14 0
0 -6 -54 14 0
0 -1 -55 15 0
0 -2 -56 15 0
0 -3 -57 15 0
0 -4 -58 15 0
0 -5 -59 15 0
0 -6 -60 15 0
0 -1 -61 16 0
0 -2 -62 16 0
0 -3 -63 16 0
0 -4 -64 16 0
0 -5 -65 16 0
0 -6 -66 16 0
0 -1 -67 17 0
0 -2 -68 17 0
0 -3 -69 17 0
0 -4 -70 17 0
0 -5 -71 17 0
0 -6 -72 17 0
0 -1 -73 18 0
0 -2 -74 18 0
0 -3 -75 18 0
0 -4 -76 18 0
0 -5 -77 18 0
0 -6 -78 18 0
2 -1 -43 19 0
2 -1 -49 20 0
2 -1 -55 21 0
2 -1 -61 22 0
2 -1 -67 23 0
2 -1 -73 24 0
2 -2 -44 19 0
2 -2 -50 20 0
2 -2 -56 21 0
2 -2 -62 22 0
2 -2 -68 23 0
2 -2 -74 24 0
2 -3 -45 19 0
2 -3 -51 20 0
2 -3 -57 21 0
2 -3 -63 22 0
2 -3 -69 23 0
2 -3 -75 24 0
2 -4 -46 19 0
2 -4 -52 20 0
2 -4 -58 21 0
2 -4 -64 22 0
2 -4 -70 23 0
2 -4 -76 24 0
2 -5 -47 19 0
2 -5 -53 20 0
2 -5 -59 21 0
2 -5 -65 22 0
2 -5 -71 23 0
2 -5 -77 24 0
2 -6 -48 19 0
2 -6 -54 20 0
2 -6 -60 21 0
2 -6 -66 22 0
2 -6 -72 23 0
2 -6 -78 24 0
0 -1 -43 25 0
0 -1 -49 26 0
0 -1 -55 27 0
0 -1 -61 28 0
0 -1 -67 29 0
0 -1 -73 30 0
0 -2 -44 25 0
0 -2 -50 26 0
0 -2 -56 27 0
0 -2 -62 28 0
0 -2 -68 29 0
0 -2 -74 30 0
0 -3 -45 25 0
0 -3 -51 26 0
0 -3 -57 27 0
0 -3 -63 28 0
0 -3 -69 29 0
0 -3 -75 30 0
0 -4 -46 25 0
0 -4 -52 26 0
0 -4 -58 27 0
0 -4 -64 28 0
0 -4 -70 29 0
0 -4 -76 30 0
0 -5 -47 25 0
0 -5 -53 26 0
0 -5 -59 27 0
0 -5 -65 28 0
0 -5 -71 29 0
0 -5 -77 30 0
0 -6 -48 25 0
0 -6 -54 26 0
0 -6 -60 27 0
0 -6 -66 28 0
0 -6 -72 29 0
0 -6 -78 30 0
2 -1 -43 31 0
2 -1 -49 32 0
2 -1 -55 33 0
2 -1 -61 34 0
2 -1 -67 35 0
2 -1 -73 36 0
2 -2 -44 31 0
2 -2 -50 32 0
2 -2 -56 33 0
2 -2 -62 34 0
2 -2 -68 35 0
2 -2 -74 36 0
2 -3 -45 31 0
2 -3 -51 32 0
2 -3 -57 33 0
2 -3 -63 34 0
2 -3 -69 35 0
2 -3 -75 36 0
2 -4 -46 31 0
2 -4 -52 32 0
2 -4 -58 33 0
2 -4 -64 34 0
2 -4 -70 35 0
2 -4 -76 36 0
2 -5 -47 31 0
2 -5 -53 32 0
2 -5 -59 33 0
2 -5 -65 34 0
2 -5 -71 35 0
2 -5 -77 36 0
2 -6 -48 31 0
2 -6 -54 32 0
2 -6 -60 33 0
2 -6 -66 34 0
2 -6 -72 35 0
2 -6 -78 36 0
1 -7 -43 1 0
1 -7 -49 2 0
1 -7 -55 3 0
1 -7 -61 4 0
1 -7 -67 5 0
1 -7 -73 6 0
1 -8 -44 1 0
1 -8 -50 2 0
1 -8 -56 3 0
1 -8 -62 4 0
1 -8 -68 5 0
1 -8 -74 6 0
1 -9 -45 1 0
1 -9 -51 2 0
1 -9 -57 3 0
1 -9 -63 4 0
1 -9 -69 5 0
1 -9 -75 6 0
1 -10 -46 1 0
1 -10 -52 2 0
1 -10 -58 3 0
1 -10 -64 4 0
1 -10 -70 5 0
1 -10 -76 6 0
1 -11 -47 1 0
1 -11 -53 2 0
1 -11 -59 3 0
1 -11 -65 4 0
1 -11 -71 5 0
1 -11 -77 6 0
1 -12 -48 1 0
1 -12 -54 2 0
1 -12 -60 3 0
1 -12 -66 4 0
1 -12 -72 5 0
1 -12 -78 6 0
1 -7 -43 7 0
1 -7 -49 8 0
1 -7 -55 9 0
1 -7 -61 10 0
1 -7 -67 11 0
1 -7 -73 12 0
1 -8 -44 7 0
1 -8 -50 8 0
1 -8 -56 9 0
1 -8 -62 10 0
1 -8 -68 11 0
1 -8 -74 12 0
1 -9 -45 7 0
1 -9 -51 8 0
1 -9 -57 9 0
1 -9 -63 10 0
1 -9 -69 11 0
1 -9 -75 12 0
1 -10 -46 7 0
1 -10 -52 8 0
1 -10 -58 9 0
1 -10 -64 10 0
1 -10 -70 11 0
1 -10 -76 12 0
1 -11 -47 7 0
1 -11 -53 8 0
1 -11 -59 9 0
1 -11 -65 10 0
1 -11 -71 11 0
1 -11 -77 12 0
1 -12 -48 7 0
1 -12 -54 8 0
1 -12 -60 9 0
1 -12 -66 10 0
1 -12 -72 11 0
1 -12 -78 12 0
1 -7 -43 13 0
1 -7 -49 14 0
1 -7 -55 15 0
1 -7 -61 16 0
1 -7 -67 17 0
1 -7 -73 18 0
1 -8 -44 13 0
1 -8 -50 14 0
1 -8 -56 15 0
1 -8 -62 16 0
1 -8 -68 17 0
1 -8 -74 18 0
1 -9 -45 13 0
1 -9 -51 14 0
1 -9 -57 15 0
1 -9 -63 16 0
1 -9 -69 17 0
1 -9 -75 18 0
1 -10 -46 13 0
1 -10 -52 14 0
1 -10 -58 15 0
1 -10 -64 16 0
1 -10 -70 17 0
1 -10 -76 18 0
1 -11 -47 13 0
1 -11 -53 14 0
1 -11 -59 15 0
1 -11 -65 16 0
1 -11 -71 17 0
1 -11 -77 18 0
1 -12 -48 13 0
1 -12 -54 14 0
1 -12 -60 15 0
1 -12 -66 16 0
1 -12 -72 17 0
1 -12 -78 18 0
1 -7 -43 19 0
1 -7 -49 20 0
1 -7 -55 21 0
1 -7 -61 22 0
1 -7 -67 23 0
1 -7 -73 24 0
1 -8 -44 19 0
1 -8 -50 20 0
1 -8 -56 21 0
1 -8 -62 22 0
1 -8 -68 23 0
1 -8 -74 24 0
1 -9 -45 19 0
1 -9 -51 20 0
1 -9 -57 21 0
1 -9 -63 22 0
1 -9 -69 23 0
1 -9 -75 24 0
1 -10 -46 19 0
1 -10 -52 20 0
1 -10 -58 21 0
1 -10 -64 22 0
1 -10 -70 23 0
1 -10 -76 24 0
1 -11 -47 19 0
1 -11 -53 20 0
1 -11 -59 21 0
1 -11 -65 22 0
1 -11 -71 23 0
1 -11 -77 24 0
1 -12 -48 19 0
1 -12 -54 20 0
1 -12 -60 21 0
1 -12 -66 22 0
1 -12 -72 23 0
1 -12 -78 24 0
2 -7 -43 25 0
2 -8 -44 25 0
2 -9 -45 25 0
2 -10 -46 25 0
2 -11 -47 25 0
2 -12 -48 25 0
2 -7 -49 26 0
2 -8 -50 26 0
2 -9 -51 26 0
2 -10 -52 26 0
2 -11 -53 26 0
2 -12 -54 26 0
2 -7 -55 27 0
2 -8 -56 27 0
2 -9 -57 27 0
2 -10 -58 27 0
2 -11 -59 27 0
2 -12 -60 27 0
2 -7 -61 28 0
2 -8 -62 28 0
2 -9 -63 28 0
2 -10 -64 28 0
2 -11 -65 28 0
2 -12 -66 28 0
2 -7 -67 29 0
2 -8 -68 29 0
2 -9 -69 29 0
2 -10 -70 29 0
2 -11 -71 29 0
2 -12 -72 29 0
2 -7 -73 30 0
2 -8 -74 30 0
2 -9 -75 30 0
2 -10 -76 30 0
2 -11 -77 30 0
2 -12 -78 30 0
1 -7 -43 31 0
1 -8 -44 31 0
1 -9 -45 31 0
1 -10 -46 31 0
1 -11 -47 31 0
1 -12 -48 31 0
1 -7 -49 32 0
1 -8 -50 32 0
1 -9 -51 32 0
1 -10 -52 32 0
1 -11 -53 32 0
1 -12 -54 32 0
1 -7 -55 33 0
1 -8 -56 33 0
1 -9 -57 33 0
1 -10 -58 33 0
1 -11 -59 33 0
1 -12 -60 33 0
1 -7 -61 34 0
1 -8 -62 34 0
1 -9 -63 34 0
1 -10 -64 34 0
1 -11 -65 34 0
1 -12 -66 34 0
1 -7 -67 35 0
1 -8 -68 35 0
1 -9 -69 35 0
1 -10 -70 35 0
1 -11 -71 35 0
1 -12 -72 35 0
1 -7 -73 36 0
1 -8 -74 36 0
1 -9 -75 36 0
1 -10 -76 36 0
1 -11 -77 36 0
1 -12 -78 36 0
2 -13 -43 1 0
2 -13 -49 2 0
2 -13 -55 3 0
2 -13 -61 4 0
2 -13 -67 5 0
2 -13 -73 6 0
2 -14 -44 1 0
2 -14 -50 2 0
2 -14 -56 3 0
2 -14 -62 4 0
2 -14 -68 5 0
2 -14 -74 6 0
2 -15 -45 1 0
2 -15 -51 2 0
2 -15 -57 3 0
2 -15 -63 4 0
2 -15 -69 5 0
2 -15 -75 6 0
2 -16 -46 1 0
2 -16 -52 2 0
2 -16 -58 3 0
2 -16 -64 4 0
2 -16 -70 5 0
2 -16 -76 6 0
2 -17 -47 1 0
2 -17 -53 2 0
2 -17 -59 3 0
2 -17 -65 4 0
2 -17 -71 5 0
2 -17 -77 6 0
2 -18 -48 1 0
2 -18 -54 2 0
2 -18 -60 3 0
2 -18 -66 4 0
2 -18 -72 5 0
2 -18 -78 6 0
1 -13 -43 7 0
1 -14 -44 7 0
1 -15 -45 7 0
1 -16 -46 7 0
1 -17 -47 7 0
1 -18 -48 7 0
1 -13 -49 8 0
1 -14 -50 8 0
1 -15 -51 8 0
1 -16 -52 8 0
1 -17 -53 8 0
1 -18 -54 8 0
1 -13 -55 9 0
1 -14 -56 9 0
1 -15 -57 9 0
1 -16 -58 9 0
1 -17 -59 9 0
1 -18 -60 9 0
1 -13 -61 10 0
1 -14 -62 10 0
1 -15 -63 10 0
1 -16 -64 10 0
1 -17 -65 10 0
1 -18 -66 10 0
1 -13 -67 11 0
1 -14 -68 11 0
1 -15 -69 11 0
1 -16 -70 11 0
1 -17 -71 11 0
1 -18 -72 11 0
1 -13 -73 12 0
1 -14 -74 12 0
1 -15 -75 12 0
1 -16 -76 12 0
1 -17 -77 12 0
1 -18 -78 12 0
1 -13 -43 13 0
1 -13 -49 14 0
1 -13 -55 15 0
1 -13 -61 16 0
1 -13 -67 17 0
1 -13 -73 18 0
1 -14 -44 13 0
1 -14 -50 14 0
1 -14 -56 15 0
1 -14 -62 16 0
1 -14 -68 17 0
1 -14 -74 18 0
1 -15 -45 13 0
1 -15 -51 14 0
1 -15 -57 15 0
1 -15 -63 16 0
1 -15 -69 17 0
1 -15 -75 18 0
1 -16 -46 13 0
1 -16 -52 14 0
1 -16 -58 15 0
1 -16 -64 16 0
1 -16 -70 17 0
1 -16 -76 18 0
1 -17 -47 13 0
1 -17 -53 14 0
1 -17 -59 15 0
1 -17 -65 16 0
1 -17 -71 17 0
1 -17 -77 18 0
1 -18 -48 13 0
1 -18 -54 14 0
1 -18 -60 15 0
1 -18 -66 16 0
1 -18 -72 17 0
1 -18 -78 18 0
0 -13 -43 19 0
0 -13 -49 20 0
0 -13 -55 21 0
0 -13 -61 22 0
0 -13 -67 23 0
0 -13 -73 24 0
0 -14 -44 19 0
0 -14 -50 20 0
0 -14 -56 21 0
0 -14 -62 22 0
0 -14 -68 23 0
0 -14 -74 24 0
0 -15 -45 19 0
0 -15 -51 20 0
0 -15 -57 21 0
0 -15 -63 22 0
0 -15 -69 23 0
0 -15 -75 24 0
0 -16 -46 19 0
0 -16 -52 20 0
0 -16 -58 21 0
0 -16 -64 22 0
0 -16 -70 23 0
0 -16 -76 24 0
0 -17 -47 19 0
0 -17 -53 20 0
0 -17 -59 21 0
0 -17 -65 22 0
0 -17 -71 23 0
0 -17 -77 24 0
0 -18 -48 19 0
0 -18 -54 20 0
0 -18 -60 21 0
0 -18 -66 22 0
0 -18 -72 23 0
0 -18 -78 24 0
1 -13 -43 25 0
1 -14 -44 25 0
1 -15 -45 25 0
1 -16 -46 25 0
1 -17 -47 25 0
1 -18 -48 25 0
1 -13 -49 26 0
1 -14 -50 26 0
1 -15 -51 26 0
1 -16 -52 26 0
1 -17 -53 26 0
1 -18 -54 26 0
1 -13 -55 27 0
1 -14 -56 27 0
1 -15 -57 27 0
1 -16 -58 27 0
1 -17 -59 27 0
1 -18 -60 27 0
1 -13 -61 28 0
1 -14 -62 28 0
1 -15 -63 28 0
1 -16 -64 28 0
1 -17 -65 28 0
1 -18 -66 28 0
1 -13 -67 29 0
1 -14 -68 29 0
1 -15 -69 29 0
1 -16 -70 29 0
1 -17 -71 29 0
1 -18 -72 29 0
1 -13 -73 30 0
1 -14 -74 30 0
1 -15 -75 30 0
1 -16 -76 30 0
1 -17 -77 30 0
1 -18 -78 30 0
1 -13 -43 31 0
1 -13 -49 32 0
1 -13 -55 33 0
1 -13 -61 34 0
1 -13 -67 35 0
1 -13 -73 36 0
1 -14 -44 31 0
1 -14 -50 32 0
1 -14 -56 33 0
1 -14 -62 34 0
1 -14 -68 35 0
1 -14 -74 36 0
1 -15 -45 31 0
1 -15 -51 32 0
1 -15 -57 33 0
1 -15 -63 34 0
1 -15 -69 35 0
1 -15 -75 36 0
1 -16 -46 31 0
1 -16 -52 32 0
1 -16 -58 33 0
1 -16 -64 34 0
1 -16 -70 35 0
1 -16 -76 36 0
1 -17 -47 31 0
1 -17 -53 32 0
1 -17 -59 33 0
1 -17 -65 34 0
1 -17 -71 35 0
1 -17 -77 36 0
1 -18 -48 31 0
1 -18 -54 32 0
1 -18 -60 33 0
1 -18 -66 34 0
1 -18 -72 35 0
1 -18 -78 36 0
2 -19 -43 1 0
2 -20 -44 1 0
2 -21 -45 1 0
2 -22 -46 1 0
2 -23 -47 1 0
2 -24 -48 1 0
2 -19 -49 2 0
2 -20 -50 2 0
2 -21 -51 2 0
2 -22 -52 2 0
2 -23 -53 2 0
2 -24 -54 2 0
2 -19 -55 3 0
2 -20 -56 3 0
2 -21 -57 3 0
2 -22 -58 3 0
2 -23 -59 3 0
2 -24 -60 3 0
2 -19 -61 4 0
2 -20 -62 4 0
2 -21 -63 4 0
2 -22 -64 4 0
2 -23 -65 4 0
2 -24 -66 4 0
2 -19 -67 5 0
2 -20 -68 5 0
2 -21 -69 5 0
2 -22 -70 5 0
2 -23 -71 5 0
2 -24 -72 5 0
2 -19 -73 6 0
2 -20 -74 6 0
2 -21 -75 6 0
2 -22 -76 6 0
2 -23 -77 6 0
2 -24 -78 6 0
2 -19 -43 7 0
2 -19 -49 8 0
2 -19 -55 9 0
2 -19 -61 10 0
2 -19 -67 11 0
2 -19 -73 12 0
2 -20 -44 7 0
2 -20 -50 8 0
2 -20 -56 9 0
2 -20 -62 10 0
2 -20 -68 11 0
2 -20 -74 12 0
2 -21 -45 7 0
2 -21 -51 8 0
2 -21 -57 9 0
2 -21 -63 10 0
2 -21 -69 11 0
2 -21 -75 12 0
2 -22 -46 7 0
2 -22 -52 8 0
2 -22 -58 9 0
2 -22 -64 10 0
2 -22 -70 11 0
2 -22 -76 12 0
2 -23 -47 7 0
2 -23 -53 8 0
2 -23 -59 9 0
2 -23 -65 10 0
2 -23 -71 11 0
2 -23 -77 12 0
2 -24 -48 7 0
2 -24 -54 8 0
2 -24 -60 9 0
2 -24 -66 10 0
2 -24 -72 11 0
2 -24 -78 12 0
1 -19 -43 13 0
1 -20 -44 13 0
1 -21 -45 13 0
1 -22 -46 13 0
1 -23 -47 13 0
1 -24 -48 13 0
1 -19 -49 14 0
1 -20 -50 14 0
1 -21 -51 14 0
1 -22 -52 14 0
1 -23 -53 14 0
1 -24 -54 14 0
1 -19 -55 15 0
1 -20 -56 15 0
1 -21 -57 15 0
1 -22 -58 15 0
1 -23 -59 15 0
1 -24 -60 15 0
1 -19 -61 16 0
1 -20 -62 16 0
1 -21 -63 16 0
1 -22 -64 16 0
1 -23 -65 16 0
1 -24 -66 16 0
1 -19 -67 17 0
1 -20 -68 17 0
1 -21 -69 17 0
1 -22 -70 17 0
1 -23 -71 17 0
1 -24 -72 17 0
1 -19 -73 18 0
1 -20 -74 18 0
1 -21 -75 18 0
1 -22 -76 18 0
1 -23 -77 18 0
1 -24 -78 18 0
2 -19 -43 19 0
2 -20 -44 19 0
2 -21 -45 19 0
2 -22 -46 19 0
2 -23 -47 19 0
2 -24 -48 19 0
2 -19 -49 20 0
2 -20 -50 20 0
2 -21 -51 20 0
2 -22 -52 20 0
2 -23 -53 20 0
2 -24 -54 20 0
2 -19 -55 21 0
2 -20 -56 21 0
2 -21 -57 21 0
2 -22 -58 21 0
2 -23 -59 21 0
2 -24 -60 21 0
2 -19 -61 22 0
2 -20 -62 22 0
2 -21 -63 22 0
2 -22 -64 22 0
2 -23 -65 22 0
2 -24 -66 22 0
2 -19 -67 23 0
2 -20 -68 23 0
2 -21 -69 23 0
2 -22 -70 23 0
2 -23 -71 23 0
2 -24 -72 23 0
2 -19 -73 24 0
2 -20 -74 24 0
2 -21 -75 24 0
2 -22 -76 24 0
2 -23 -77 24 0
2 -24 -78 24 0
1 -19 -43 25 0
1 -20 -44 25 0
1 -21 -45 25 0
1 -22 -46 25 0
1 -23 -47 25 0
1 -24 -48 25 0
1 -19 -49 26 0
1 -20 -50 26 0
1 -21 -51 26 0
1 -22 -52 26 0
1 -23 -53 26 0
1 -24 -54 26 0
1 -19 -55 27 0
1 -20 -56 27 0
1 -21 -57 27 0
1 -22 -58 27 0
1 -23 -59 27 0
1 -24 -60 27 0
1 -19 -61 28 0
1 -20 -62 28 0
1 -21 -63 28 0
1 -22 -64 28 0
1 -23 -65 28 0
1 -24 -66 28 0
1 -19 -67 29 0
1 -20 -68 29 0
1 -21 -69 29 0
1 -22 -70 29 0
1 -23 -71 29 0
1 -24 -72 29 0
1 -19 -73 30 0
1 -20 -74 30 0
1 -21 -75 30 0
1 -22 -76 30 0
1 -23 -77 30 0
1 -24 -78 30 0
2 -19 -43 31 0
2 -19 -49 32 0
2 -19 -55 33 0
2 -19 -61 34 0
2 -19 -67 35 0
2 -19 -73 36 0
2 -20 -44 31 0
2 -20 -50 32 0
2 -20 -56 33 0
2 -20 -62 34 0
2 -20 -68 35 0
2 -20 -74 36 0
2 -21 -45 31 0
2 -21 -51 32 0
2 -21 -57 33 0
2 -21 -63 34 0
2 -21 -69 35 0
2 -21 -75 36 0
2 -22 -46 31 0
2 -22 -52 32 0
2 -22 -58 33 0
2 -22 -64 34 0
2 -22 -70 35 0
2 -22 -76 36 0
2 -23 -47 31 0
2 -23 -53 32 0
2 -23 -59 33 0
2 -23 -65 34 0
2 -23 -71 35 0
2 -23 -77 36 0
2 -24 -48 31 0
2 -24 -54 32 0
2 -24 -60 33 0
2 -24 -66 34 0
2 -24 -72 35 0
2 -24 -78 36 0
2 -25 -43 1 0
2 -25 -49 2 0
2 -25 -55 3 0
2 -25 -61 4 0
2 -25 -67 5 0
2 -25 -73 6 0
2 -26 -44 1 0
2 -26 -50 2 0
2 -26 -56 3 0
2 -26 -62 4 0
2 -26 -68 5 0
2 -26 -74 6 0
2 -27 -45 1 0
2 -27 -51 2 0
2 -27 -57 3 0
2 -27 -63 4 0
2 -27 -69 5 0
2 -27 -75 6 0
2 -28 -46 1 0
2 -28 -52 2 0
2 -28 -58 3 0
2 -28 -64 4 0
2 -28 -70 5 0
2 -28 -76 6 0
2 -29 -47 1 0
2 -29 -53 2 0
2 -29 -59 3 0
2 -29 -65 4 0
2 -29 -71 5 0
2 -29 -77 6 0
2 -30 -48 1 0
2 -30 -54 2 0
2 -30 -60 3 0
2 -30 -66 4 0
2 -30 -72 5 0
2 -30 -78 6 0
1 -25 -43 7 0
1 -25 -49 8 0
1 -25 -55 9 0
1 -25 -61 10 0
1 -25 -67 11 0
1 -25 -73 12 0
1 -26 -44 7 0
1 -26 -50 8 0
1 -26 -56 9 0
1 -26 -62 10 0
1 -26 -68 11 0
1 -26 -74 12 0
1 -27 -45 7 0
1 -27 -51 8 0
1 -27 -57 9 0
1 -27 -63 10 0
1 -27 -69 11 0
1 -27 -75 12 0
1 -28 -46 7 0
1 -28 -52 8 0
1 -28 -58 9 0
1 -28 -64 10 0
1 -28 -70 11 0
1 -28 -76 12 0
1 -29 -47 7 0
1 -29 -53 8 0
1 -29 -59 9 0
1 -29 -65 10 0
1 -29 -71 11 0
1 -29 -77 12 0
1 -30 -48 7 0
1 -30 -54 8 0
1 -30 -60 9 0
1 -30 -66 10 0
1 -30 -72 11 0
1 -30 -78 12 0
1 -25 -43 13 0
1 -26 -44 13 0
1 -27 -45 13 0
1 -28 -46 13 0
1 -29 -47 13 0
1 -30 -48 13 0
1 -25 -49 14 0
1 -26 -50 14 0
1 -27 -51 14 0
1 -28 -52 14 0
1 -29 -53 14 0
1 -30 -54 14 0
1 -25 -55 15 0
1 -26 -56 15 0
1 -27 -57 15 0
1 -28 -58 15 0
1 -29 -59 15 0
1 -30 -60 15 0
1 -25 -61 16 0
1 -26 -62 16 0
1 -27 -63 16 0
1 -28 -64 16 0
1 -29 -65 16 0
1 -30 -66 16 0
1 -25 -67 17 0
1 -26 -68 17 0
1 -27 -69 17 0
1 -28 -70 17 0
1 -29 -71 17 0
1 -30 -72 17 0
1 -25 -73 18 0
1 -26 -74 18 0
1 -27 -75 18 0
1 -28 -76 18 0
1 -29 -77 18 0
1 -30 -78 18 0
1 -25 -43 19 0
1 -25 -49 20 0
1 -25 -55 21 0
1 -25 -61 22 0
1 -25 -67 23 0
1 -25 -73 24 0
1 -26 -44 19 0
1 -26 -50 20 0
1 -26 -56 21 0
1 -26 -62 22 0
1 -26 -68 23 0
1 -26 -74 24 0
1 -27 -45 19 0
1 -27 -51 20 0
1 -27 -57 21 0
1 -27 -63 22 0
1 -27 -69 23 0
1 -27 -75 24 0
1 -28 -46 19 0
1 -28 -52 20 0
1 -28 -58 21 0
1 -28 -64 22 0
1 -28 -70 23 0
1 -28 -76 24 0
1 -29 -47 19 0
1 -29 -53 20 0
1 -29 -59 21 0
1 -29 -65 22 0
1 -29 -71 23 0
1 -29 -77 24 0
1 -30 -48 19 0
1 -30 -54 20 0
1 -30 -60 21 0
1 -30 -66 22 0
1 -30 -72 23 0
1 -30 -78 24 0
2 -25 -43 25 0
2 -25 -49 26 0
2 -25 -55 27 0
2 -25 -61 28 0
2 -25 -67 29 0
2 -25 -73 30 0
2 -26 -44 25 0
2 -26 -50 26 0
2 -26 -56 27 0
2 -26 -62 28 0
2 -26 -68 29 0
2 -26 -74 30 0
2 -27 -45 25 0
2 -27 -51 26 0
2 -27 -57 27 0
2 -27 -63 28 0
2 -27 -69 29 0
2 -27 -75 30 0
2 -28 -46 25 0
2 -28 -52 26 0
2 -28 -58 27 0
2 -28 -64 28 0
2 -28 -70 29 0
2 -28 -76 30 0
2 -29 -47 25 0
2 -29 -53 26 0
2 -29 -59 27 0
2 -29 -65 28 0
2 -29 -71 29 0
2 -29 -77 30 0
2 -30 -48 25 0
2 -30 -54 26 0
2 -30 -60 27 0
2 -30 -66 28 0
2 -30 -72 29 0
2 -30 -78 30 0
0 -25 -43 31 0
0 -25 -49 32 0
0 -25 -55 33 0
0 -25 -61 34 0
0 -25 -67 35 0
0 -25 -73 36 0
0 -26 -44 31 0
0 -26 -50 32 0
0 -26 -56 33 0
0 -26 -62 34 0
0 -26 -68 35 0
0 -26 -74 36 0
0 -27 -45 31 0
0 -27 -51 32 0
0 -27 -57 33 0
0 -27 -63 34 0
0 -27 -69 35 0
0 -27 -75 36 0
0 -28 -46 31 0
0 -28 -52 32 0
0 -28 -58 33 0
0 -28 -64 34 0
0 -28 -70 35 0
0 -28 -76 36 0
0 -29 -47 31 0
0 -29 -53 32 0
0 -29 -59 33 0
0 -29 -65 34 0
0 -29 -71 35 0
0 -29 -77 36 0
0 -30 -48 31 0
0 -30 -54 32 0
0 -30 -60 33 0
0 -30 -66 34 0
0 -30 -72 35 0
0 -30 -78 36 0
1 -31 -43 1 0
1 -32 -44 1 0
1 -33 -45 1 0
1 -34 -46 1 0
1 -35 -47 1 0
1 -36 -48 1 0
1 -31 -49 2 0
1 -32 -50 2 0
1 -33 -51 2 0
1 -34 -52 2 0
1 -35 -53 2 0
1 -36 -54 2 0
1 -31 -55 3 0
1 -32 -56 3 0
1 -33 -57 3 0
1 -34 -58 3 0
1 -35 -59 3 0
1 -36 -60 3 0
1 -31 -61 4 0
1 -32 -62 4 0
1 -33 -63 4 0
1 -34 -64 4 0
1 -35 -65 4 0
1 -36 -66 4 0
1 -31 -67 5 0
1 -32 -68 5 0
1 -33 -69 5 0
1 -34 -70 5 0
1 -35 -71 5 0
1 -36 -72 5 0
1 -31 -73 6 0
1 -32 -74 6 0
1 -33 -75 6 0
1 -34 -76 6 0
1 -35 -77 6 0
1 -36 -78 6 0
1 -31 -43 7 0
1 -31 -49 8 0
1 -31 -55 9 0
1 -31 -61 10 0
1 -31 -67 11 0
1 -31 -73 12 0
1 -32 -44 7 0
1 -32 -50 8 0
1 -32 -56 9 0
1 -32 -62 10 0
1 -32 -68 11 0
1 -32 -74 12 0
1 -33 -45 7 0
1 -33 -51 8 0
1 -33 -57 9 0
1 -33 -63 10 0
1 -33 -69 11 0
1 -33 -75 12 0
1 -34 -46 7 0
1 -34 -52 8 0
1 -34 -58 9 0
1 -34 -64 10 0
1 -34 -70 11 0
1 -34 -76 12 0
1 -35 -47 7 0
1 -35 -53 8 0
1 -35 -59 9 0
1 -35 -65 10 0
1 -35 -71 11 0
1 -35 -77 12 0
1 -36 -48 7 0
1 -36 -54 8 0
1 -36 -60 9 0
1 -36 -66 10 0
1 -36 -72 11 0
1 -36 -78 12 0
0 -31 -43 13 0
0 -32 -44 13 0
0 -33 -45 13 0
0 -34 -46 13 0
0 -35 -47 13 0
0 -36 -48 13 0
0 -31 -49 14 0
0 -32 -50 14 0
0 -33 -51 14 0
0 -34 -52 14 0
0 -35 -53 14 0
0 -36 -54 14 0
0 -31 -55 15 0
0 -32 -56 15 0
0 -33 -57 15 0
0 -34 -58 15 0
0 -35 -59 15 0
0 -36 -60 15 0
0 -31 -61 16 0
0 -32 -62 16 0
0 -33 -63 16 0
0 -34 -64 16 0
0 -35 -65 16 0
0 -36 -66 16 0
0 -31 -67 17 0
0 -32 -68 17 0
0 -33 -69 17 0
0 -34 -70 17 0
0 -35 -71 17 0
0 -36 -72 17 0
0 -31 -73 18 0
0 -32 -74 18 0
0 -33 -75 18 0
0 -34 -76 18 0
0 -35 -77 18 0
0 -36 -78 18 0
0 -31 -43 19 0
0 -31 -49 20 0
0 -31 -55 21 0
0 -31 -61 22 0
0 -31 -67 23 0
0 -31 -73 24 0
0 -32 -44 19 0
0 -32 -50 20 0
0 -32 -56 21 0
0 -32 -62 22 0
0 -32 -68 23 0
0 -32 -74 24 0
0 -33 -45 19 0
0 -33 -51 20 0
0 -33 -57 21 0
0 -33 -63 22 0
0 -33 -69 23 0
0 -33 -75 24 0
0 -34 -46 19 0
0 -34 -52 20 0
0 -34 -58 21 0
0 -34 -64 22 0
0 -34 -70 23 0
0 -34 -76 24 0
0 -35 -47 19 0
0 -35 -53 20 0
0 -35 -59 21 0
0 -35 -65 22 0
0 -35 -71 23 0
0 -35 -77 24 0
0 -36 -48 19 0
0 -36 -54 20 0
0 -36 -60 21 0
0 -36 -66 22 0
0 -36 -72 23 0
0 -36 -78 24 0
1 -31 -43 25 0
1 -32 -44 25 0
1 -33 -45 25 0
1 -34 -46 25 0
1 -35 -47 25 0
1 -36 -48 25 0
1 -31 -49 26 0
1 -32 -50 26 0
1 -33 -51 26 0
1 -34 -52 26 0
1 -35 -53 26 0
1 -36 -54 26 0
1 -31 -55 27 0
1 -32 -56 27 0
1 -33 -57 27 0
1 -34 -58 27 0
1 -35 -59 27 0
1 -36 -60 27 0
1 -31 -61 28 0
1 -32 -62 28 0
1 -33 -63 28 0
1 -34 -64 28 0
1 -35 -65 28 0
1 -36 -66 28 0
1 -31 -67 29 0
1 -32 -68 29 0
1 -33 -69 29 0
1 -34 -70 29 0
1 -35 -71 29 0
1 -36 -72 29 0
1 -31 -73 30 0
1 -32 -74 30 0
1 -33 -75 30 0
1 -34 -76 30 0
1 -35 -77 30 0
1 -36 -78 30 0
1 -31 -43 31 0
1 -31 -49 32 0
1 -31 -55 33 0
1 -31 -61 34 0
1 -31 -67 35 0
1 -31 -73 36 0
1 -32 -44 31 0
1 -32 -50 32 0
1 -32 -56 33 0
1 -32 -62 34 0
1 -32 -68 35 0
1 -32 -74 36 0
1 -33 -45 31 0
1 -33 -51 32 0
1 -33 -57 33 0
1 -33 -63 34 0
1 -33 -69 35 0
1 -33 -75 36 0
1 -34 -46 31 0
1 -34 -52 32 0
1 -34 -58 33 0
1 -34 -64 34 0
1 -34 -70 35 0
1 -34 -76 36 0
1 -35 -47 31 0
1 -35 -53 32 0
1 -35 -59 33 0
1 -35 -65 34 0
1 -35 -71 35 0
1 -35 -77 36 0
1 -36 -48 31 0
1 -36 -54 32 0
1 -36 -60 33 0
1 -36 -66 34 0
1 -36 -72 35 0
1 -36 -78 36 0
181 -43 43 0
181 -49 44 0
181 -55 45 0
181 -61 46 0
181 -67 47 0
181 -73 48 0
181 -44 49 0
181 -50 50 0
181 -56 51 0
181 -62 52 0
181 -68 53 0
181 -74 54 0
181 -45 55 0
181 -51 56 0
181 -57 57 0
181 -63 58 0
181 -69 59 0
181 -75 60 0
181 -46 61 0
181 -52 62 0
181 -58 63 0
181 -64 64 0
181 -70 65 0
181 -76 66 0
181 -47 67 0
181 -53 68 0
181 -59 69 0
181 -65 70 0
181 -71 71 0
181 -77 72 0
181 -48 73 0
181 -54 74 0
181 -60 75 0
181 -66 76 0
181 -72 77 0
181 -78 78 0
